\ENCODING=ISO-8859-1
\Problem name: IloCplex

Minimize
 obj: 800 y_0 + 800 y_1 + 800 y_2 + 800 y_3 + 800 y_4 + 800 y_5 + 800 y_6
      + 800 y_7 + 800 y_8 + 800 y_9 + 800 y_10 + 800 y_11 + 800 y_12 + 800 y_13
      + 800 y_14 + 800 y_15 + 800 y_16 + 800 y_17 + 800 y_18 + 800 y_19
      + 800 y_20 + 800 y_21 + 800 y_22 + 800 y_23 + 800 y_24 + 800 y_25
      + 800 y_26 + 800 y_27 + 800 y_28 + 800 y_29 + 800 y_30 + 800 y_31
      + 800 y_32 + 800 y_33 + 800 y_34 + 800 y_35 + 800 y_36 + 800 y_37
      + 800 y_38 + 800 y_39 + 800 y_40 + 800 y_41 + 800 y_42 + 800 y_43
      + 800 y_44 + 800 y_45 + 800 y_46 + 800 y_47 + 800 y_48 + 800 y_49
      + 800 y_50 + 800 y_51 + 800 y_52 + 800 y_53 + 800 y_54 + 800 y_55
      + 800 y_56 + 800 y_57 + 800 y_58 + 800 y_59 + 800 y_60 + 800 y_61
      + 800 y_62 + 800 y_63 + 800 y_64 + 800 y_65 + 800 y_66 + 800 y_67
      + 800 y_68 + 800 y_69 + 800 y_70 + 800 y_71 + 800 y_72 + 800 y_73
      + 800 y_74 + 800 y_75 + 800 y_76 + 800 y_77 + 800 y_78 + 800 y_79
      + 800 y_80 + 800 y_81 + 800 y_82 + 800 y_83 + 800 y_84 + 800 y_85
      + 800 y_86 + 800 y_87 + 800 y_88 + 800 y_89 + 800 y_90 + 800 y_91
      + 800 y_92 + 800 y_93 + 800 y_94 + 4 x_8 + 4 x_9 + 8 x_10 + 8 x_11
      + 304 x_12 + 10 x_14 + 606 x_15 + 601 x_16 + 162 x_17 + 162 x_18
      + 154 x_19 + 1159 x_20 + 958 x_21 + 958 x_22 + 911 x_23 + 911 x_24
      + 1961 x_25 + 1961 x_26 + 11 x_27 + 11 x_28 + 8 x_29 + 8 x_30 + 7 x_31
      + 57 x_32 + 195 x_33 + 195 x_34 + 198 x_35 + 158 x_36 + 56 x_37
      + 752 x_38 + 198 x_39 + 495 x_40 + 198 x_41 + 198 x_42 + 1065 x_43
      + 1365 x_44 + 885 x_45 + 1756 x_46 + 1286 x_47 + 1859 x_48 + 199 x_49
      + 499 x_50 + 56 x_51 + 108 x_52 + 7 x_53 + 5 x_54 + 266 x_55 + 263 x_56
      + 716 x_57 + 6 x_58 + 6 x_59 + 606 x_60 + 719 x_61 + 717 x_62 + 718 x_63
      + 1569 x_64 + 104 x_65 + 1852 x_66 + 1169 x_67 + 818 x_68 + 1959 x_69
      + 1606 x_70 + 269 x_71 + 267 x_72 + 8 x_73 + 6 x_74 + 445 x_75 + 5 x_76
      + 1006 x_77 + 254 x_78 + 254 x_79 + 255 x_80 + 253 x_81 + 1355 x_82
      + 2044 x_83 + 258 x_84 + 258 x_85 + 956 x_86 + 254 x_87 + 1255 x_88
      + 253 x_89 + 255 x_90 + 256 x_91 + 1307 x_92 + 1304 x_93 + 257 x_94
      + 257 x_95 + 956 x_96 + 958 x_97 + 397 x_98 + 3 x_99 + 4 x_100 + x_101
      + 296 x_102 + 1166 x_103 + 4 x_104 + 836 x_105 + 601 x_106 + 8 x_107
      + 838 x_108 + 4 x_109 + 1395 x_110 + 3 x_111 + 2 x_112 + 907 x_113
      + 1096 x_114 + 2150 x_115 + 1957 x_116 + 7 x_117 + 837 x_118 + 448 x_119
      + 506 x_120 + 7 x_121 + 3 x_122 + 266 x_123 + 686 x_124 + 308 x_125
      + 6 x_126 + 908 x_127 + 688 x_128 + 686 x_129 + 688 x_130 + 1539 x_131
      + 6 x_132 + 304 x_133 + 267 x_134 + 818 x_135 + 1359 x_136 + 1606 x_137
      + 269 x_138 + 267 x_139 + 310 x_140 + 6 x_141 + 6 x_142 + 2 x_143
      + 7 x_144 + 2 x_145 + 248 x_146 + 456 x_147 + 4 x_148 + 6 x_149
      + 606 x_150 + 9 x_151 + 7 x_152 + 8 x_153 + 7 x_154 + 6 x_155 + 255 x_156
      + 7 x_157 + 1048 x_158 + 1057 x_159 + 2096 x_160 + 9 x_161 + 7 x_162
      + 198 x_163 + 196 x_164 + 405 x_165 + 1155 x_166 + 1145 x_167 + 4 x_168
      + 256 x_169 + 4 x_170 + 4 x_171 + 602 x_172 + 4 x_173 + 755 x_174
      + 3 x_175 + 1096 x_176 + 4 x_177 + 304 x_178 + 755 x_179 + 4 x_180
      + 1050 x_181 + 1055 x_182 + x_183 + 751 x_184 + 54 x_185 + 54 x_186
      + 6 x_187 + 4 x_188 + 5 x_189 + 56 x_190 + 906 x_191 + 906 x_192
      + 1203 x_193 + 58 x_194 + 56 x_195 + 56 x_196 + 437 x_197 + x_198
      + 5 x_199 + 86 x_200 + 1657 x_201 + 1736 x_202 + 7 x_203 + 5 x_204
      + 58 x_205 + 56 x_206
Subject To
 cover_lg_0:   y_0 + x_0 + x_8 + x_9 + x_31 + x_32 + x_53 + x_54 + x_98 + x_99
               + x_142 + x_143 + x_165 + x_166 + x_187 + x_188  = 1
 cover_lg_1:   y_1 + x_0 + x_8 + x_9 + x_142 + x_143 + x_144 + x_145 + x_146
               + x_147 + x_151 + x_152 + x_153 + x_154 + x_157 + x_158 + x_161
               + x_162 + x_180 + x_187 + x_188 + x_189 + x_199 + x_200 + x_203
               + x_204  = 1
 cover_lg_2:   y_2 + x_0 + x_8 + x_9 + x_125 + x_127 + x_132 + x_133 + x_136
               + x_140  = 1
 cover_lg_3:   y_3 + x_0 + x_8 + x_9 + x_125 + x_127 + x_132 + x_133 + x_136
               + x_140  = 1
 cover_lg_4:   y_4 + x_0 + x_8 + x_9 + x_17 + x_26 + x_27 + x_30 + x_75 + x_142
               + x_143 + x_144 + x_146 + x_147 + x_148 + x_149 + x_150 + x_151
               + x_152 + x_153 + x_154 + x_155 + x_156 + x_157 + x_158 + x_159
               + x_160 + x_161 + x_162 + x_163 + x_164  = 1
 cover_lg_5:   y_5 + x_0 + x_8 + x_9 + x_17 + x_26 + x_27 + x_30 + x_75 + x_142
               + x_143 + x_144 + x_146 + x_147 + x_148 + x_149 + x_150 + x_151
               + x_152 + x_153 + x_154 + x_155 + x_156 + x_157 + x_158 + x_159
               + x_160 + x_161 + x_162 + x_163 + x_164  = 1
 cover_lg_6:   y_6 + x_0 + x_59 + x_62 + x_72 + x_74 + x_99 + x_120 + x_122
               + x_126 + x_129 + x_139 + x_141 + x_143 + x_149 + x_152 + x_162
               + x_164  = 1
 cover_lg_7:   y_7 + x_0 + x_59 + x_62 + x_72 + x_74 + x_99 + x_120 + x_122
               + x_126 + x_129 + x_139 + x_141 + x_143 + x_149 + x_152 + x_162
               + x_164  = 1
 cover_lg_8:   y_8 + x_1 + x_10 + x_11 + x_23 + x_24 + x_27 + x_28 + x_55
               + x_56 + x_57 + x_61 + x_62 + x_63 + x_64 + x_67 + x_68 + x_71
               + x_72 + x_77 + x_78 + x_90 + x_91 + x_94 + x_95 + x_100 + x_101
               + x_113 + x_114 + x_117 + x_118 + x_123 + x_134 + x_135 + x_138
               + x_139  = 1
 cover_lg_9:   y_9 + x_1 + x_33 + x_34 + x_35 + x_36 + x_38 + x_39 + x_40
               + x_41 + x_42 + x_43 + x_44 + x_47 + x_49 + x_50  = 1
 cover_lg_10:  y_10 + x_1 + x_33 + x_34 + x_35 + x_36 + x_38 + x_39 + x_40
               + x_41 + x_42 + x_43 + x_44 + x_47 + x_49 + x_50  = 1
 cover_lg_11:  y_11 + x_1 + x_171 + x_186  = 1
 cover_lg_12:  y_12 + x_1 + x_171 + x_186  = 1
 cover_lg_13:  y_13 + x_1 + x_10 + x_11 + x_33 + x_34 + x_55 + x_77 + x_78
               + x_100 + x_123 + x_144 + x_167 + x_168 + x_189  = 1
 cover_lg_14:  y_14 + x_2 + x_79  = 1
 cover_lg_15:  y_15 + x_2 + x_79 + x_80 + x_81  = 1
 cover_lg_16:  y_16 + x_2 + x_12 + x_14 + x_15 + x_20 + x_25  = 1
 cover_lg_17:  y_17 + x_2 + x_12 + x_14 + x_15 + x_20 + x_25  = 1
 cover_lg_18:  y_18 + x_2 + x_12 + x_14 + x_15 + x_20 + x_25  = 1
 cover_lg_19:  y_19 + x_2 + x_12 + x_14 + x_15 + x_20 + x_25  = 1
 cover_lg_20:  y_20 + x_2 + x_12 + x_14 + x_20 + x_53 + x_55 + x_57 + x_58
               + x_60 + x_61 + x_63 + x_64 + x_67 + x_68 + x_69 + x_70 + x_71
               + x_73 + x_124 + x_131 + x_135 + x_137 + x_147  = 1
 cover_lg_21:  y_21 + x_2 + x_12 + x_14 + x_20 + x_53 + x_55 + x_57 + x_58
               + x_60 + x_61 + x_63 + x_64 + x_67 + x_68 + x_69 + x_70 + x_71
               + x_73 + x_124 + x_131 + x_135 + x_137 + x_147  = 1
 cover_lg_22:  y_22 + x_2 + x_12 + x_35 + x_57 + x_79 + x_102 + x_103 + x_124
               + x_146 + x_147 + x_169 + x_190  = 1
 cover_lg_23:  y_23 + x_3 + x_13 + x_14 + x_36 + x_37 + x_58 + x_59 + x_104
               + x_105 + x_125 + x_126 + x_148 + x_149 + x_170 + x_171 + x_191
               + x_192  = 1
 cover_lg_24:  y_24 + x_3 + x_10 + x_11 + x_12 + x_13 + x_17 + x_18 + x_19
               + x_20 + x_21 + x_22 + x_23 + x_24 + x_26 + x_27 + x_28 + x_29
               + x_30  = 1
 cover_lg_25:  y_25 + x_3 + x_10 + x_11 + x_12 + x_13 + x_17 + x_18 + x_19
               + x_20 + x_21 + x_22 + x_23 + x_24 + x_26 + x_27 + x_28 + x_29
               + x_30  = 1
 cover_lg_26:  y_26 + x_3 + x_11 + x_13 + x_18 + x_21 + x_22 + x_24 + x_28
               + x_31 + x_32 + x_37 + x_48 + x_51 + x_52  = 1
 cover_lg_27:  y_27 + x_3 + x_11 + x_13 + x_18 + x_21 + x_22 + x_24 + x_28
               + x_31 + x_32 + x_37 + x_48 + x_51 + x_52  = 1
 cover_lg_28:  y_28 + x_3 + x_10 + x_11 + x_13 + x_18 + x_21 + x_22 + x_23
               + x_24 + x_28 + x_29 + x_76 + x_77 + x_78 + x_79 + x_80 + x_81
               + x_82 + x_83 + x_84 + x_85 + x_86 + x_87 + x_88 + x_89 + x_90
               + x_91 + x_92 + x_93 + x_94 + x_95 + x_96 + x_97 + x_99 + x_120
               + x_121 + x_122  = 1
 cover_lg_29:  y_29 + x_3 + x_10 + x_11 + x_13 + x_18 + x_21 + x_22 + x_23
               + x_24 + x_28 + x_29 + x_76 + x_77 + x_78 + x_79 + x_80 + x_81
               + x_82 + x_83 + x_84 + x_85 + x_86 + x_87 + x_88 + x_89 + x_90
               + x_91 + x_92 + x_93 + x_94 + x_95 + x_96 + x_97 + x_99 + x_120
               + x_121 + x_122  = 1
 cover_lg_30:  y_30 + x_3 + x_8 + x_10 + x_11 + x_13 + x_21 + x_23 + x_24
               + x_29 + x_121 + x_123 + x_128 + x_130 + x_134 + x_138 + x_142
               + x_144 + x_146 + x_148 + x_150 + x_151 + x_153 + x_154 + x_155
               + x_157 + x_158 + x_159 + x_160 + x_161 + x_163  = 1
 cover_lg_31:  y_31 + x_3 + x_8 + x_10 + x_11 + x_13 + x_21 + x_23 + x_24
               + x_29 + x_121 + x_123 + x_128 + x_130 + x_134 + x_138 + x_142
               + x_144 + x_146 + x_148 + x_150 + x_151 + x_153 + x_155 + x_157
               + x_158 + x_159 + x_160 + x_161 + x_163  = 1
 cover_lg_32:  y_32 + x_3 + x_8 + x_9 + x_13 + x_17 + x_18 + x_23 + x_24 + x_25
               + x_26 + x_27 + x_28 + x_29 + x_30 + x_53 + x_58 + x_61 + x_67
               + x_69 + x_71 + x_73 + x_75 + x_81 + x_85 + x_95 + x_97 + x_98
               + x_104 + x_107 + x_113 + x_116 + x_117 + x_119 + x_121 + x_125
               + x_128 + x_138 + x_140 + x_142 + x_148 + x_151 + x_161 + x_163
               + x_170 + x_187 + x_191 + x_194 + x_203 + x_205  = 1
 cover_lg_33:  y_33 + x_3 + x_8 + x_9 + x_13 + x_17 + x_18 + x_23 + x_24 + x_25
               + x_26 + x_27 + x_28 + x_29 + x_30 + x_53 + x_58 + x_61 + x_67
               + x_69 + x_71 + x_73 + x_75 + x_81 + x_85 + x_95 + x_97 + x_98
               + x_104 + x_107 + x_113 + x_116 + x_117 + x_119 + x_121 + x_125
               + x_128 + x_138 + x_140 + x_142 + x_148 + x_151 + x_161 + x_163
               + x_170 + x_187 + x_191 + x_194 + x_203 + x_205  = 1
 cover_lg_34:  y_34 + x_15 + x_16 + x_38 + x_60 + x_82 + x_83 + x_106 + x_127
               + x_150 + x_172 + x_193  = 1
 cover_lg_35:  y_35 + x_51 + x_52 + x_119 + x_163 + x_164 + x_185 + x_186
               + x_190 + x_191 + x_192 + x_193 + x_194 + x_195 + x_196 + x_197
               + x_201 + x_202 + x_205 + x_206  = 1
 cover_lg_36:  y_36 + x_31 + x_32 + x_51 + x_52 + x_53 + x_54 + x_98 + x_99
               + x_119 + x_163 + x_164 + x_185 + x_186 + x_190 + x_191 + x_192
               + x_193 + x_194 + x_195 + x_196 + x_197 + x_201 + x_202 + x_205
               + x_206  = 1
 cover_lg_37:  y_37 + x_33 + x_34 + x_35 + x_36 + x_38 + x_39 + x_40 + x_41
               + x_42 + x_43 + x_44 + x_45 + x_46 + x_47 + x_49 + x_50 + x_53
               + x_77 + x_78 + x_79 + x_80 + x_81 + x_82 + x_83 + x_84 + x_85
               + x_86 + x_87 + x_88 + x_89 + x_90 + x_91 + x_92 + x_93 + x_94
               + x_95 + x_96 + x_97 + x_123 + x_124 + x_126 + x_128 + x_129
               + x_130 + x_131 + x_134 + x_135 + x_137 + x_138 + x_139 + x_141
               + x_187 + x_188 + x_189 + x_190 + x_191 + x_192 + x_193 + x_194
               + x_195 + x_196 + x_197 + x_198 + x_199 + x_200 + x_201 + x_202
               + x_203 + x_204 + x_205 + x_206  = 1
 cover_lg_38:  y_38 + x_34 + x_38 + x_42 + x_98 + x_100 + x_102 + x_103 + x_104
               + x_105 + x_106 + x_107 + x_108 + x_109 + x_110 + x_111 + x_112
               + x_113 + x_114 + x_116 + x_117 + x_118 + x_119 + x_123 + x_124
               + x_126 + x_128 + x_129 + x_130 + x_131 + x_134 + x_135 + x_137
               + x_138 + x_139 + x_141  = 1
 cover_lg_39:  y_39 + x_15 + x_25 + x_33 + x_34 + x_38 + x_41 + x_42 + x_43
               + x_75 + x_83 + x_98 + x_100 + x_102 + x_103 + x_104 + x_105
               + x_106 + x_107 + x_108 + x_109 + x_110 + x_111 + x_112 + x_113
               + x_114 + x_116 + x_117 + x_118 + x_119 + x_156 + x_168 + x_170
               + x_172 + x_177 + x_182  = 1
 cover_lg_40:  y_40 + x_15 + x_25 + x_33 + x_34 + x_38 + x_41 + x_42 + x_43
               + x_75 + x_98 + x_100 + x_102 + x_104 + x_105 + x_106 + x_107
               + x_108 + x_109 + x_110 + x_111 + x_113 + x_114 + x_116 + x_117
               + x_118 + x_119 + x_166 + x_167 + x_168 + x_170 + x_172 + x_174
               + x_176 + x_177 + x_179 + x_182 + x_184  = 1
 cover_lg_41:  y_41 + x_15 + x_38 + x_60 + x_82 + x_83 + x_106 + x_127 + x_150
               + x_172 + x_193  = 1
 cover_lg_42:  y_42 + x_4 + x_35 + x_39 + x_40 + x_41 + x_42 + x_57 + x_61
               + x_62 + x_63 + x_64 + x_124 + x_128 + x_129 + x_130 + x_131
               + x_146 + x_147 + x_151 + x_152 + x_153 + x_154 + x_173 + x_174
               + x_176  = 1
 cover_lg_43:  y_43 + x_4 + x_33 + x_34 + x_35 + x_39 + x_40 + x_41 + x_42
               + x_49 + x_50 + x_124 + x_128 + x_129 + x_130 + x_131  = 1
 cover_lg_44:  y_44 + x_4 + x_16 + x_169 + x_170 + x_172 + x_177 + x_178
               + x_182  = 1
 cover_lg_45:  y_45 + x_4 + x_75 + x_76 + x_121 + x_122 + x_168 + x_169 + x_170
               + x_172 + x_177 + x_178 + x_182  = 1
 cover_lg_46:  y_46 + x_4 + x_32 + x_37 + x_48 + x_52  = 1
 cover_lg_47:  y_47 + x_4 + x_32 + x_37 + x_40 + x_44 + x_48 + x_50 + x_52
               + x_66 + x_133 + x_178  = 1
 cover_lg_48:  y_48 + x_4 + x_32 + x_37 + x_40 + x_44 + x_48 + x_50 + x_52
               + x_66 + x_133 + x_178  = 1
 cover_lg_49:  y_49 + x_4 + x_32 + x_37 + x_40 + x_48 + x_50 + x_52 + x_165
               + x_173 + x_183  = 1
 cover_lg_50:  y_50 + x_5 + x_12 + x_17 + x_18 + x_19 + x_20 + x_84 + x_85
               + x_86 + x_87 + x_102 + x_103 + x_107 + x_108 + x_109 + x_110
               + x_169 + x_175  = 1
 cover_lg_51:  y_51 + x_5 + x_12 + x_17 + x_18 + x_19 + x_20 + x_84 + x_85
               + x_86 + x_87 + x_102 + x_103 + x_107 + x_108 + x_109 + x_110
               + x_169 + x_175  = 1
 cover_lg_52:  y_52 + x_5 + x_65  = 1
 cover_lg_53:  y_53 + x_5 + x_65  = 1
 cover_lg_54:  y_54 + x_5 + x_19 + x_125 + x_127 + x_132 + x_136 + x_140  = 1
 cover_lg_55:  y_55 + x_5 + x_19 + x_125 + x_127 + x_132 + x_136 + x_140  = 1
 cover_lg_56:  y_56 + x_5 + x_9 + x_17 + x_18 + x_19 + x_22 + x_26 + x_27
               + x_28 + x_30 + x_125 + x_127 + x_132 + x_136 + x_140  = 1
 cover_lg_57:  y_57 + x_5 + x_9 + x_17 + x_18 + x_19 + x_22 + x_26 + x_27
               + x_28 + x_30 + x_125 + x_127 + x_132 + x_136 + x_140  = 1
 cover_lg_58:  y_58 + x_5 + x_19 + x_41 + x_42 + x_63 + x_86 + x_87 + x_109
               + x_130 + x_153 + x_176 + x_196  = 1
 cover_lg_59:  y_59 + x_21 + x_22 + x_43 + x_44 + x_65 + x_66 + x_88 + x_89
               + x_111 + x_112 + x_132 + x_133 + x_155 + x_156 + x_177 + x_178
               + x_198  = 1
 cover_lg_60:  y_60 + x_14 + x_15 + x_25 + x_37 + x_48 + x_55 + x_56 + x_57
               + x_58 + x_59 + x_60 + x_61 + x_62 + x_63 + x_64 + x_66 + x_67
               + x_68 + x_69 + x_70 + x_71 + x_72 + x_73 + x_74 + x_123 + x_124
               + x_125 + x_126 + x_127 + x_128 + x_129 + x_130 + x_131 + x_134
               + x_135 + x_136 + x_137 + x_138 + x_139 + x_140 + x_141  = 1
 cover_lg_61:  y_61 + x_14 + x_15 + x_25 + x_37 + x_48 + x_55 + x_56 + x_57
               + x_58 + x_59 + x_60 + x_61 + x_62 + x_63 + x_64 + x_66 + x_67
               + x_68 + x_69 + x_70 + x_71 + x_72 + x_73 + x_74 + x_123 + x_124
               + x_125 + x_126 + x_127 + x_128 + x_129 + x_130 + x_131 + x_134
               + x_135 + x_136 + x_137 + x_138 + x_139 + x_140 + x_141  = 1
 cover_lg_62:  y_62 + x_55 + x_57 + x_58 + x_59 + x_60 + x_61 + x_62 + x_63
               + x_64 + x_66 + x_67 + x_68 + x_69 + x_70 + x_71 + x_72 + x_73
               + x_74 + x_98 + x_100 + x_102 + x_103 + x_104 + x_105 + x_106
               + x_107 + x_108 + x_109 + x_110 + x_111 + x_112 + x_113 + x_114
               + x_116 + x_117 + x_118 + x_119  = 1
 cover_lg_63:  y_63 + x_33 + x_35 + x_36 + x_39 + x_40 + x_41 + x_43 + x_44
               + x_45 + x_46 + x_47 + x_49 + x_50 + x_53 + x_55 + x_57 + x_58
               + x_59 + x_60 + x_61 + x_62 + x_63 + x_64 + x_66 + x_67 + x_68
               + x_69 + x_70 + x_71 + x_72 + x_73 + x_74 + x_77 + x_78 + x_79
               + x_80 + x_81 + x_82 + x_83 + x_84 + x_85 + x_86 + x_87 + x_88
               + x_89 + x_90 + x_91 + x_92 + x_93 + x_94 + x_95 + x_96 + x_97
               + x_187 + x_188 + x_189 + x_190 + x_191 + x_192 + x_193 + x_194
               + x_195 + x_196 + x_197 + x_198 + x_199 + x_200 + x_201 + x_202
               + x_203 + x_204 + x_205 + x_206  = 1
 cover_lg_64:  y_64 + x_31 + x_35 + x_36 + x_39 + x_40 + x_44 + x_45 + x_46
               + x_47 + x_49 + x_50 + x_51 + x_66 + x_133 + x_178 + x_187
               + x_188 + x_189 + x_190 + x_191 + x_192 + x_193 + x_194 + x_195
               + x_196 + x_197 + x_198 + x_199 + x_200 + x_201 + x_202 + x_203
               + x_204 + x_205 + x_206  = 1
 cover_lg_65:  y_65 + x_31 + x_35 + x_36 + x_39 + x_45 + x_46 + x_47 + x_49
               + x_51 + x_103 + x_187 + x_188 + x_189 + x_190 + x_191 + x_192
               + x_193 + x_194 + x_195 + x_196 + x_197 + x_198 + x_199 + x_200
               + x_201 + x_202 + x_203 + x_204 + x_205 + x_206  = 1
 cover_lg_66:  y_66 + x_21 + x_22 + x_43 + x_65 + x_88 + x_89 + x_111 + x_132
               + x_155 + x_177 + x_198  = 1
 cover_lg_67:  y_67  = 1
 cover_lg_68:  y_68  = 1
 cover_lg_69:  y_69 + x_10 + x_17 + x_19 + x_23 + x_26 + x_27 + x_29 + x_30
               + x_142 + x_143 + x_144 + x_146 + x_147 + x_148 + x_149 + x_150
               + x_151 + x_152 + x_153 + x_154 + x_155 + x_156 + x_157 + x_158
               + x_159 + x_160 + x_161 + x_162 + x_163 + x_164  = 1
 cover_lg_70:  y_70 + x_10 + x_17 + x_19 + x_23 + x_26 + x_27 + x_29 + x_30
               + x_142 + x_143 + x_144 + x_146 + x_147 + x_148 + x_149 + x_150
               + x_151 + x_152 + x_153 + x_154 + x_155 + x_156 + x_157 + x_158
               + x_159 + x_160 + x_161 + x_162 + x_163 + x_164  = 1
 cover_lg_71:  y_71 + x_65 + x_169  = 1
 cover_lg_72:  y_72 + x_65 + x_169  = 1
 cover_lg_73:  y_73 + x_14 + x_31 + x_36 + x_39 + x_46 + x_49 + x_51 + x_76
               + x_80 + x_84 + x_94 + x_96 + x_105 + x_108 + x_118 + x_171
               + x_185 + x_186  = 1
 cover_lg_74:  y_74 + x_14 + x_31 + x_36 + x_39 + x_46 + x_49 + x_51 + x_76
               + x_80 + x_84 + x_94 + x_96 + x_105 + x_108 + x_118 + x_171
               + x_185 + x_186  = 1
 cover_lg_75:  y_75 + x_6 + x_45 + x_46  = 1
 cover_lg_76:  y_76 + x_6 + x_45 + x_46  = 1
 cover_lg_77:  y_77 + x_6 + x_45 + x_46  = 1
 cover_lg_78:  y_78 + x_6 + x_45 + x_46  = 1
 cover_lg_79:  y_79 + x_6 + x_54 + x_56 + x_101 + x_145  = 1
 cover_lg_80:  y_80 + x_6 + x_54  = 1
 cover_lg_81:  y_81 + x_6 + x_20 + x_54 + x_64 + x_77 + x_82 + x_86 + x_88
               + x_90 + x_92 + x_110 + x_131 + x_175 + x_197  = 1
 cover_lg_82:  y_82 + x_6 + x_54 + x_77 + x_82 + x_86 + x_88 + x_90 + x_92  = 1
 cover_lg_83:  y_83 + x_6 + x_23 + x_24 + x_25 + x_26 + x_46 + x_48 + x_67
               + x_69 + x_90 + x_92 + x_113 + x_116 + x_134 + x_136 + x_157
               + x_159 + x_179 + x_182 + x_199 + x_201  = 1
 cover_lg_84:  y_84 + x_25 + x_26 + x_47 + x_48 + x_69 + x_70 + x_92 + x_93
               + x_115 + x_116 + x_136 + x_137 + x_159 + x_160 + x_181 + x_182
               + x_201 + x_202  = 1
 cover_lg_85:  y_85 + x_96 + x_97 + x_115 + x_120  = 1
 cover_lg_86:  y_86 + x_96 + x_97 + x_115 + x_120  = 1
 cover_lg_87:  y_87 + x_115 + x_175 + x_180 + x_181 + x_185  = 1
 cover_lg_88:  y_88 + x_115 + x_175 + x_180 + x_181 + x_185  = 1
 cover_lg_89:  y_89 + x_45 + x_47 + x_68 + x_70 + x_91 + x_93 + x_114 + x_115
               + x_135 + x_137 + x_158 + x_160 + x_180 + x_181 + x_200 + x_202
                = 1
 cover_lg_90:  y_90 + x_7 + x_165 + x_166 + x_167 + x_168 + x_173 + x_174
               + x_176 + x_179 + x_183 + x_184  = 1
 cover_lg_91:  y_91 + x_7 + x_165 + x_166 + x_167 + x_173 + x_174 + x_176
               + x_179 + x_183 + x_184  = 1
 cover_lg_92:  y_92 + x_7 + x_165 + x_166 + x_167 + x_173 + x_174 + x_176
               + x_179 + x_183 + x_184  = 1
 cover_lg_93:  y_93 + x_7 + x_165 + x_166 + x_167 + x_173 + x_174 + x_176
               + x_179 + x_183 + x_184  = 1
 cover_lg_94:  y_94 + x_7 + x_83  = 1
 select_ac_0:  x_0 + x_8 + x_9 + x_31 + x_32 + x_53 + x_54 + x_75 + x_76 + x_98
               + x_99 + x_121 + x_122 + x_142 + x_143 + x_165 + x_166 + x_187
               + x_188 <= 1
 select_ac_1:  x_1 + x_10 + x_11 + x_33 + x_34 + x_55 + x_56 + x_77 + x_78
               + x_100 + x_101 + x_123 + x_144 + x_145 + x_167 + x_168 + x_189
               <= 1
 select_ac_2:  x_2 + x_12 + x_35 + x_57 + x_79 + x_102 + x_103 + x_124 + x_146
               + x_147 + x_169 + x_190 <= 1
 select_ac_3:  x_3 + x_13 + x_14 + x_36 + x_37 + x_58 + x_59 + x_80 + x_81
               + x_104 + x_105 + x_125 + x_126 + x_148 + x_149 + x_170 + x_171
               + x_191 + x_192 <= 1
 select_ac_4:  x_15 + x_16 + x_38 + x_60 + x_82 + x_83 + x_106 + x_127 + x_150
               + x_172 + x_193 <= 1
 select_ac_5:  x_4 + x_17 + x_18 + x_39 + x_40 + x_61 + x_62 + x_84 + x_85
               + x_107 + x_108 + x_128 + x_129 + x_151 + x_152 + x_173 + x_174
               + x_194 + x_195 <= 1
 select_ac_6:  x_5 + x_19 + x_20 + x_41 + x_42 + x_63 + x_64 + x_86 + x_87
               + x_109 + x_110 + x_130 + x_131 + x_153 + x_154 + x_175 + x_176
               + x_196 + x_197 <= 1
 select_ac_7:  x_21 + x_22 + x_43 + x_44 + x_65 + x_66 + x_88 + x_89 + x_111
               + x_112 + x_132 + x_133 + x_155 + x_156 + x_177 + x_178 + x_198
               <= 1
 select_ac_8:  x_6 + x_23 + x_24 + x_45 + x_46 + x_67 + x_68 + x_90 + x_91
               + x_113 + x_114 + x_134 + x_135 + x_157 + x_158 + x_179 + x_180
               + x_199 + x_200 <= 1
 select_ac_9:  x_25 + x_26 + x_47 + x_48 + x_69 + x_70 + x_92 + x_93 + x_115
               + x_116 + x_136 + x_137 + x_159 + x_160 + x_181 + x_182 + x_201
               + x_202 <= 1
 select_ac_10: x_7 + x_27 + x_28 + x_49 + x_50 + x_71 + x_72 + x_94 + x_95
               + x_117 + x_118 + x_138 + x_139 + x_161 + x_162 + x_183 + x_184
               + x_203 + x_204 <= 1
 select_ac_11: x_29 + x_30 + x_51 + x_52 + x_73 + x_74 + x_96 + x_97 + x_119
               + x_120 + x_140 + x_141 + x_163 + x_164 + x_185 + x_186 + x_205
               + x_206 <= 1
Bounds
 0 <= y_0 <= 1
 0 <= y_1 <= 1
 0 <= y_2 <= 1
 0 <= y_3 <= 1
 0 <= y_4 <= 1
 0 <= y_5 <= 1
 0 <= y_6 <= 1
 0 <= y_7 <= 1
 0 <= y_8 <= 1
 0 <= y_9 <= 1
 0 <= y_10 <= 1
 0 <= y_11 <= 1
 0 <= y_12 <= 1
 0 <= y_13 <= 1
 0 <= y_14 <= 1
 0 <= y_15 <= 1
 0 <= y_16 <= 1
 0 <= y_17 <= 1
 0 <= y_18 <= 1
 0 <= y_19 <= 1
 0 <= y_20 <= 1
 0 <= y_21 <= 1
 0 <= y_22 <= 1
 0 <= y_23 <= 1
 0 <= y_24 <= 1
 0 <= y_25 <= 1
 0 <= y_26 <= 1
 0 <= y_27 <= 1
 0 <= y_28 <= 1
 0 <= y_29 <= 1
 0 <= y_30 <= 1
 0 <= y_31 <= 1
 0 <= y_32 <= 1
 0 <= y_33 <= 1
 0 <= y_34 <= 1
 0 <= y_35 <= 1
 0 <= y_36 <= 1
 0 <= y_37 <= 1
 0 <= y_38 <= 1
 0 <= y_39 <= 1
 0 <= y_40 <= 1
 0 <= y_41 <= 1
 0 <= y_42 <= 1
 0 <= y_43 <= 1
 0 <= y_44 <= 1
 0 <= y_45 <= 1
 0 <= y_46 <= 1
 0 <= y_47 <= 1
 0 <= y_48 <= 1
 0 <= y_49 <= 1
 0 <= y_50 <= 1
 0 <= y_51 <= 1
 0 <= y_52 <= 1
 0 <= y_53 <= 1
 0 <= y_54 <= 1
 0 <= y_55 <= 1
 0 <= y_56 <= 1
 0 <= y_57 <= 1
 0 <= y_58 <= 1
 0 <= y_59 <= 1
 0 <= y_60 <= 1
 0 <= y_61 <= 1
 0 <= y_62 <= 1
 0 <= y_63 <= 1
 0 <= y_64 <= 1
 0 <= y_65 <= 1
 0 <= y_66 <= 1
 0 <= y_67 <= 1
 0 <= y_68 <= 1
 0 <= y_69 <= 1
 0 <= y_70 <= 1
 0 <= y_71 <= 1
 0 <= y_72 <= 1
 0 <= y_73 <= 1
 0 <= y_74 <= 1
 0 <= y_75 <= 1
 0 <= y_76 <= 1
 0 <= y_77 <= 1
 0 <= y_78 <= 1
 0 <= y_79 <= 1
 0 <= y_80 <= 1
 0 <= y_81 <= 1
 0 <= y_82 <= 1
 0 <= y_83 <= 1
 0 <= y_84 <= 1
 0 <= y_85 <= 1
 0 <= y_86 <= 1
 0 <= y_87 <= 1
 0 <= y_88 <= 1
 0 <= y_89 <= 1
 0 <= y_90 <= 1
 0 <= y_91 <= 1
 0 <= y_92 <= 1
 0 <= y_93 <= 1
 0 <= y_94 <= 1
 0 <= x_0 <= 1
 0 <= x_1 <= 1
 0 <= x_2 <= 1
 0 <= x_3 <= 1
 0 <= x_4 <= 1
 0 <= x_5 <= 1
 0 <= x_6 <= 1
 0 <= x_7 <= 1
 0 <= x_8 <= 1
 0 <= x_9 <= 1
 0 <= x_10 <= 1
 0 <= x_11 <= 1
 0 <= x_12 <= 1
 0 <= x_13 <= 1
 0 <= x_14 <= 1
 0 <= x_15 <= 1
 0 <= x_16 <= 1
 0 <= x_17 <= 1
 0 <= x_18 <= 1
 0 <= x_19 <= 1
 0 <= x_20 <= 1
 0 <= x_21 <= 1
 0 <= x_22 <= 1
 0 <= x_23 <= 1
 0 <= x_24 <= 1
 0 <= x_25 <= 1
 0 <= x_26 <= 1
 0 <= x_27 <= 1
 0 <= x_28 <= 1
 0 <= x_29 <= 1
 0 <= x_30 <= 1
 0 <= x_31 <= 1
 0 <= x_32 <= 1
 0 <= x_33 <= 1
 0 <= x_34 <= 1
 0 <= x_35 <= 1
 0 <= x_36 <= 1
 0 <= x_37 <= 1
 0 <= x_38 <= 1
 0 <= x_39 <= 1
 0 <= x_40 <= 1
 0 <= x_41 <= 1
 0 <= x_42 <= 1
 0 <= x_43 <= 1
 0 <= x_44 <= 1
 0 <= x_45 <= 1
 0 <= x_46 <= 1
 0 <= x_47 <= 1
 0 <= x_48 <= 1
 0 <= x_49 <= 1
 0 <= x_50 <= 1
 0 <= x_51 <= 1
 0 <= x_52 <= 1
 0 <= x_53 <= 1
 0 <= x_54 <= 1
 0 <= x_55 <= 1
 0 <= x_56 <= 1
 0 <= x_57 <= 1
 0 <= x_58 <= 1
 0 <= x_59 <= 1
 0 <= x_60 <= 1
 0 <= x_61 <= 1
 0 <= x_62 <= 1
 0 <= x_63 <= 1
 0 <= x_64 <= 1
 0 <= x_65 <= 1
 0 <= x_66 <= 1
 0 <= x_67 <= 1
 0 <= x_68 <= 1
 0 <= x_69 <= 1
 0 <= x_70 <= 1
 0 <= x_71 <= 1
 0 <= x_72 <= 1
 0 <= x_73 <= 1
 0 <= x_74 <= 1
 0 <= x_75 <= 1
 0 <= x_76 <= 1
 0 <= x_77 <= 1
 0 <= x_78 <= 1
 0 <= x_79 <= 1
 0 <= x_80 <= 1
 0 <= x_81 <= 1
 0 <= x_82 <= 1
 0 <= x_83 <= 1
 0 <= x_84 <= 1
 0 <= x_85 <= 1
 0 <= x_86 <= 1
 0 <= x_87 <= 1
 0 <= x_88 <= 1
 0 <= x_89 <= 1
 0 <= x_90 <= 1
 0 <= x_91 <= 1
 0 <= x_92 <= 1
 0 <= x_93 <= 1
 0 <= x_94 <= 1
 0 <= x_95 <= 1
 0 <= x_96 <= 1
 0 <= x_97 <= 1
 0 <= x_98 <= 1
 0 <= x_99 <= 1
 0 <= x_100 <= 1
 0 <= x_101 <= 1
 0 <= x_102 <= 1
 0 <= x_103 <= 1
 0 <= x_104 <= 1
 0 <= x_105 <= 1
 0 <= x_106 <= 1
 0 <= x_107 <= 1
 0 <= x_108 <= 1
 0 <= x_109 <= 1
 0 <= x_110 <= 1
 0 <= x_111 <= 1
 0 <= x_112 <= 1
 0 <= x_113 <= 1
 0 <= x_114 <= 1
 0 <= x_115 <= 1
 0 <= x_116 <= 1
 0 <= x_117 <= 1
 0 <= x_118 <= 1
 0 <= x_119 <= 1
 0 <= x_120 <= 1
 0 <= x_121 <= 1
 0 <= x_122 <= 1
 0 <= x_123 <= 1
 0 <= x_124 <= 1
 0 <= x_125 <= 1
 0 <= x_126 <= 1
 0 <= x_127 <= 1
 0 <= x_128 <= 1
 0 <= x_129 <= 1
 0 <= x_130 <= 1
 0 <= x_131 <= 1
 0 <= x_132 <= 1
 0 <= x_133 <= 1
 0 <= x_134 <= 1
 0 <= x_135 <= 1
 0 <= x_136 <= 1
 0 <= x_137 <= 1
 0 <= x_138 <= 1
 0 <= x_139 <= 1
 0 <= x_140 <= 1
 0 <= x_141 <= 1
 0 <= x_142 <= 1
 0 <= x_143 <= 1
 0 <= x_144 <= 1
 0 <= x_145 <= 1
 0 <= x_146 <= 1
 0 <= x_147 <= 1
 0 <= x_148 <= 1
 0 <= x_149 <= 1
 0 <= x_150 <= 1
 0 <= x_151 <= 1
 0 <= x_152 <= 1
 0 <= x_153 <= 1
 0 <= x_154 <= 1
 0 <= x_155 <= 1
 0 <= x_156 <= 1
 0 <= x_157 <= 1
 0 <= x_158 <= 1
 0 <= x_159 <= 1
 0 <= x_160 <= 1
 0 <= x_161 <= 1
 0 <= x_162 <= 1
 0 <= x_163 <= 1
 0 <= x_164 <= 1
 0 <= x_165 <= 1
 0 <= x_166 <= 1
 0 <= x_167 <= 1
 0 <= x_168 <= 1
 0 <= x_169 <= 1
 0 <= x_170 <= 1
 0 <= x_171 <= 1
 0 <= x_172 <= 1
 0 <= x_173 <= 1
 0 <= x_174 <= 1
 0 <= x_175 <= 1
 0 <= x_176 <= 1
 0 <= x_177 <= 1
 0 <= x_178 <= 1
 0 <= x_179 <= 1
 0 <= x_180 <= 1
 0 <= x_181 <= 1
 0 <= x_182 <= 1
 0 <= x_183 <= 1
 0 <= x_184 <= 1
 0 <= x_185 <= 1
 0 <= x_186 <= 1
 0 <= x_187 <= 1
 0 <= x_188 <= 1
 0 <= x_189 <= 1
 0 <= x_190 <= 1
 0 <= x_191 <= 1
 0 <= x_192 <= 1
 0 <= x_193 <= 1
 0 <= x_194 <= 1
 0 <= x_195 <= 1
 0 <= x_196 <= 1
 0 <= x_197 <= 1
 0 <= x_198 <= 1
 0 <= x_199 <= 1
 0 <= x_200 <= 1
 0 <= x_201 <= 1
 0 <= x_202 <= 1
 0 <= x_203 <= 1
 0 <= x_204 <= 1
 0 <= x_205 <= 1
 0 <= x_206 <= 1
End
